67
291
558
873
920
943
1245
1344
3234
1423
648
480
4446
4850
3030
6984
6445
1376
7069
7154
7888
7688
8500
8340
8042
8960
8553
218
7275
12501
11703
609
17386
8369
26192
10651
26170
29369
20886
30203
12686
25666
34975
33421
40330
39042
12403
44608
47728
35460
17832
35289
30756
31003
9776
56311
60784
67266
16541
37881
40036
72893
58645
80411
48544
34492
85161
74523
88521
65838
95481
33231
70136
51155
3223
59338
38080
107582
78604
120361
82379
67423
124189
102374
115488
123939
37799
126659
131834
96550
128002
103040
100556
145158
143012
150092
105138
152365
141492
124420
